
n_res = 6;
rcap = [18, 17, 19, 16, 643, 621];
rtype = [1, 1, 1, 1, 2, 2];
n_tasks = 50;
modes =  [{1, 2, 3}, {4, 5, 6}, {7, 8, 9}, {10, 11, 12}, {13, 14, 15}, {16, 17, 18}, {19, 20, 21}, {22, 23, 24}, {25, 26, 27}, {28, 29, 30}, {31, 32, 33}, {34, 35, 36}, {37, 38, 39}, {40, 41, 42}, {43, 44, 45}, {46, 47, 48}, {49, 50, 51}, {52, 53, 54}, {55, 56, 57}, {58, 59, 60}, {61, 62, 63}, {64, 65, 66}, {67, 68, 69}, {70, 71, 72}, {73, 74, 75}, {76, 77, 78}, {79, 80, 81}, {82, 83, 84}, {85, 86, 87}, {88, 89, 90}, {91, 92, 93}, {94, 95, 96}, {97, 98, 99}, {100, 101, 102}, {103, 104, 105}, {106, 107, 108}, {109, 110, 111}, {112, 113, 114}, {115, 116, 117}, {118, 119, 120}, {121, 122, 123}, {124, 125, 126}, {127, 128, 129}, {130, 131, 132}, {133, 134, 135}, {136, 137, 138}, {139, 140, 141}, {142, 143, 144}, {145, 146, 147}, {148, 149, 150}];
succ =  [{14, 11, 10, 3}, {12, 8, 6}, {12, 8}, {12, 10}, {11, 10}, {9}, {8}, {18, 16, 15, 13}, {10}, {18, 16, 13}, {18, 16, 13}, {18, 13}, {25, 20, 19, 17}, {20, 19, 17}, {25, 24, 21, 19}, {25, 23, 17}, {29, 27, 26, 24, 21}, {28, 26, 22}, {23, 22}, {21}, {37, 35, 32, 31, 30, 28}, {33, 32, 29, 27}, {37, 36, 33, 32, 30, 29}, {43, 37, 35, 32, 31, 28}, {34, 33, 27}, {43, 41, 37, 36, 35, 31}, {37, 36, 35, 30}, {40, 39, 36, 34, 33}, {50, 43, 40, 35, 34}, {50, 47, 45, 43, 42, 41, 39, 38}, {47, 42, 40, 39, 33}, {50, 47, 45, 42, 41, 39, 38}, {50, 49, 48, 45, 38}, {49, 47, 45, 41, 38}, {48, 47, 45, 38}, {46, 45, 44}, {50, 47, 44}, {46, 44}, {49, 48}, {45, 44}, {44}, {44}, {44}, {}, {}, {}, {}, {}, {}, {}];
n_opt = 150;
dur = [5, 15, 16, 2, 19, 21, 16, 17, 23, 1, 2, 30, 28, 29, 30, 11, 12, 30, 19, 25, 26, 1, 10, 13, 4, 13, 25, 21, 24, 29, 1, 9, 13, 1, 6, 18, 4, 10, 28, 7, 22, 24, 18, 21, 28, 5, 14, 27, 4, 8, 11, 4, 6, 20, 6, 16, 19, 13, 22, 26, 1, 5, 15, 2, 4, 18, 18, 22, 24, 4, 18, 28, 3, 5, 9, 14, 15, 22, 1, 2, 22, 2, 12, 29, 16, 22, 27, 2, 12, 16, 5, 8, 15, 6, 16, 25, 7, 8, 24, 9, 12, 21, 16, 17, 23, 13, 23, 29, 17, 22, 24, 1, 2, 6, 13, 17, 25, 10, 18, 24, 3, 6, 17, 7, 16, 26, 2, 3, 27, 13, 24, 30, 5, 22, 25, 7, 8, 30, 5, 10, 26, 3, 7, 8, 4, 12, 13, 7, 16, 24];
rreq = [|3, 2, 1, 4, 3, 3, 5, 5, 5, 4, 3, 1, 2, 1, 1, 2, 1, 1, 2, 1, 1, 5, 5, 5, 5, 5, 5, 5, 2, 1, 4, 3, 1, 2, 1, 1, 3, 1, 1, 4, 3, 3, 3, 3, 3, 3, 3, 2, 4, 4, 4, 4, 4, 4, 3, 3, 2, 4, 4, 4, 5, 2, 1, 2, 1, 1, 3, 3, 2, 4, 3, 1, 4, 3, 3, 4, 2, 2, 3, 3, 3, 2, 2, 2, 4, 4, 2, 2, 2, 1, 4, 2, 1, 1, 1, 1, 2, 1, 1, 4, 3, 2, 5, 5, 5, 4, 4, 2, 3, 3, 3, 5, 2, 2, 2, 2, 2, 5, 3, 3, 4, 2, 2, 4, 3, 2, 4, 4, 4, 5, 4, 3, 2, 1, 1, 4, 4, 4, 3, 3, 3, 5, 4, 3, 5, 3, 2, 2, 2, 2
 |4, 2, 2, 3, 2, 2, 3, 3, 1, 2, 1, 1, 4, 3, 2, 5, 3, 2, 3, 2, 2, 5, 5, 5, 4, 3, 2, 4, 3, 2, 3, 3, 3, 4, 3, 1, 4, 3, 2, 4, 2, 2, 5, 4, 3, 4, 4, 4, 4, 3, 1, 3, 2, 1, 2, 1, 1, 4, 4, 4, 4, 3, 3, 1, 1, 1, 3, 2, 2, 5, 4, 3, 1, 1, 1, 5, 3, 2, 5, 2, 1, 2, 2, 2, 3, 1, 1, 3, 1, 1, 4, 4, 4, 3, 2, 2, 3, 3, 3, 3, 2, 2, 3, 3, 3, 5, 5, 5, 1, 1, 1, 4, 4, 2, 2, 2, 2, 2, 2, 2, 5, 4, 3, 5, 5, 5, 5, 4, 3, 3, 2, 1, 5, 4, 4, 4, 4, 3, 4, 2, 2, 4, 4, 3, 1, 1, 1, 4, 4, 3
 |1, 1, 1, 3, 2, 1, 5, 3, 3, 5, 5, 5, 2, 2, 2, 5, 5, 5, 5, 4, 3, 1, 1, 1, 3, 3, 3, 2, 1, 1, 5, 3, 3, 4, 2, 2, 3, 3, 3, 5, 3, 2, 5, 3, 2, 3, 2, 2, 5, 4, 3, 2, 1, 1, 5, 4, 3, 4, 3, 3, 4, 3, 2, 3, 2, 1, 4, 4, 3, 4, 3, 3, 3, 3, 3, 1, 1, 1, 4, 4, 4, 3, 3, 3, 5, 2, 1, 4, 3, 3, 5, 3, 3, 4, 3, 2, 4, 3, 3, 4, 3, 3, 2, 1, 1, 2, 1, 1, 5, 3, 3, 1, 1, 1, 3, 2, 2, 1, 1, 1, 3, 3, 3, 3, 3, 3, 3, 2, 1, 3, 3, 3, 2, 2, 2, 5, 4, 3, 3, 2, 2, 2, 2, 1, 5, 3, 2, 5, 3, 2
 |2, 1, 1, 4, 3, 3, 4, 4, 4, 2, 1, 1, 4, 3, 3, 2, 2, 2, 3, 3, 3, 2, 1, 1, 5, 5, 5, 1, 1, 1, 3, 3, 3, 3, 3, 3, 2, 2, 2, 4, 3, 1, 3, 3, 3, 4, 4, 4, 5, 4, 2, 2, 2, 2, 3, 3, 3, 4, 2, 2, 4, 4, 3, 4, 3, 3, 4, 2, 1, 5, 5, 5, 2, 2, 1, 2, 2, 2, 2, 1, 1, 2, 2, 2, 3, 2, 2, 2, 2, 2, 2, 2, 2, 1, 1, 1, 5, 3, 2, 4, 4, 4, 4, 3, 3, 4, 3, 1, 3, 3, 3, 5, 4, 4, 2, 2, 2, 4, 4, 4, 5, 3, 2, 3, 2, 2, 1, 1, 1, 3, 2, 1, 3, 3, 3, 4, 4, 4, 3, 2, 2, 3, 2, 1, 4, 3, 3, 2, 1, 1
 |6, 6, 6, 27, 26, 26, 24, 22, 20, 8, 4, 4, 15, 15, 15, 6, 6, 6, 23, 19, 14, 23, 23, 23, 25, 13, 9, 6, 5, 5, 10, 7, 7, 24, 19, 17, 11, 8, 5, 17, 12, 12, 16, 14, 12, 6, 6, 6, 24, 21, 21, 20, 10, 5, 24, 22, 18, 9, 8, 8, 21, 14, 7, 10, 6, 4, 3, 2, 1, 27, 23, 23, 21, 18, 10, 24, 18, 14, 16, 14, 12, 27, 24, 23, 14, 14, 12, 19, 19, 19, 15, 11, 2, 21, 14, 13, 13, 11, 11, 13, 11, 4, 15, 13, 10, 13, 9, 4, 7, 6, 6, 27, 25, 23, 10, 10, 4, 28, 28, 28, 13, 11, 9, 10, 9, 9, 10, 8, 6, 24, 19, 16, 17, 16, 14, 20, 15, 8, 21, 14, 14, 8, 7, 7, 25, 15, 11, 20, 18, 16
 |8, 5, 3, 14, 11, 7, 13, 12, 9, 15, 11, 8, 22, 13, 8, 13, 10, 5, 17, 12, 10, 22, 18, 17, 8, 8, 7, 14, 10, 8, 23, 11, 7, 17, 13, 12, 17, 13, 9, 11, 11, 5, 9, 8, 7, 26, 25, 24, 21, 18, 8, 24, 18, 7, 25, 23, 16, 14, 13, 10, 18, 12, 3, 16, 15, 5, 20, 20, 20, 7, 5, 5, 7, 3, 1, 28, 27, 27, 27, 18, 8, 28, 21, 20, 14, 13, 12, 22, 18, 11, 9, 6, 6, 29, 28, 25, 13, 10, 9, 24, 15, 3, 25, 22, 20, 16, 7, 7, 8, 8, 7, 18, 17, 14, 17, 15, 12, 22, 13, 12, 28, 18, 7, 16, 9, 5, 18, 17, 13, 26, 24, 19, 14, 11, 11, 7, 7, 7, 21, 20, 19, 11, 10, 10, 28, 27, 25, 8, 7, 4|];